\ SCIP STATISTICS
\   Problem name     : t_mas76
\   Variables        : 151 (150 binary, 0 integer, 0 implicit integer, 1 continuous)
\   Constraints      : 12
Minimize
 Obj: +1e-05 t_x149 +1e-05 t_x1 +1e-05 t_x2 +1e-05 t_x3 +1e-05 t_x4 +1e-05 t_x5 +1e-05 t_x6 +1e-05 t_x7
      +1e-05 t_x8 +1e-05 t_x9 +1e-05 t_x10 +1e-05 t_x11 +1e-05 t_x12 +1e-05 t_x13 +1e-05 t_x14 +1e-05 t_x15
      +1e-05 t_x16 +1e-05 t_x17 +1e-05 t_x18 +1e-05 t_x19 +1e-05 t_x20 +1e-05 t_x21 +1e-05 t_x22 +1e-05 t_x23
      +1e-05 t_x24 +1e-05 t_x25 +1e-05 t_x26 +1e-05 t_x27 +1e-05 t_x28 +1e-05 t_x29 +1e-05 t_x30 +1e-05 t_x31
      +1e-05 t_x32 +1e-05 t_x33 +1e-05 t_x34 +1e-05 t_x35 +1e-05 t_x36 +1e-05 t_x37 +1e-05 t_x38 +1e-05 t_x39
      +1e-05 t_x40 +1e-05 t_x41 +1e-05 t_x42 +1e-05 t_x43 +1e-05 t_x44 +1e-05 t_x45 +1e-05 t_x46 +1e-05 t_x47
      +1e-05 t_x48 +1e-05 t_x49 +1e-05 t_x50 +1e-05 t_x51 +1e-05 t_x52 +1e-05 t_x53 +1e-05 t_x54 +1e-05 t_x55
      +1e-05 t_x56 +1e-05 t_x57 +1e-05 t_x58 +1e-05 t_x59 +1e-05 t_x60 +1e-05 t_x61 +1e-05 t_x62 +1e-05 t_x63
      +1e-05 t_x64 +1e-05 t_x65 +1e-05 t_x66 +1e-05 t_x67 +1e-05 t_x68 +1e-05 t_x69 +1e-05 t_x70 +1e-05 t_x71
      +1e-05 t_x72 +1e-05 t_x73 +1e-05 t_x74 +1e-05 t_x75 +1e-05 t_x76 +1e-05 t_x77 +1e-05 t_x78 +1e-05 t_x79
      +1e-05 t_x80 +1e-05 t_x81 +1e-05 t_x82 +1e-05 t_x83 +1e-05 t_x84 +1e-05 t_x85 +1e-05 t_x86 +1e-05 t_x87
      +1e-05 t_x88 +1e-05 t_x89 +1e-05 t_x90 +1e-05 t_x91 +1e-05 t_x92 +1e-05 t_x93 +1e-05 t_x94 +1e-05 t_x95
      +1e-05 t_x96 +1e-05 t_x97 +1e-05 t_x98 +1e-05 t_x99 +1e-05 t_x100 +1e-05 t_x101 +1e-05 t_x102 +1e-05 t_x103
      +1e-05 t_x104 +1e-05 t_x105 +1e-05 t_x106 +1e-05 t_x107 +1e-05 t_x108 +1e-05 t_x109 +1e-05 t_x110
      +1e-05 t_x111 +1e-05 t_x112 +1e-05 t_x113 +1e-05 t_x114 +1e-05 t_x115 +1e-05 t_x116 +1e-05 t_x117
      +1e-05 t_x118 +1e-05 t_x119 +1e-05 t_x120 +1e-05 t_x121 +1e-05 t_x122 +1e-05 t_x123 +1e-05 t_x124
      +1e-05 t_x125 +1e-05 t_x126 +1e-05 t_x127 +1e-05 t_x128 +1e-05 t_x129 +1e-05 t_x130 +1e-05 t_x131
      +1e-05 t_x132 +1e-05 t_x133 +1e-05 t_x134 +1e-05 t_x135 +1e-05 t_x136 +1e-05 t_x137 +1e-05 t_x138
      +1e-05 t_x139 +1e-05 t_x140 +1e-05 t_x141 +1e-05 t_x142 +1e-05 t_x143 +1e-05 t_x144 +1e-05 t_x145
      +1e-05 t_x146 +1e-05 t_x147 +1e-05 t_x148 +1e-05 t_x150 +1 t_x151
Subject to
 c12: +8742 t_x149 +4264 t_x1 +3717.0066721 t_x2 +3906 t_x3 +2876 t_x4 +7630.8567538 t_x5 +7310 t_x6 +1529 t_x7
  +1585 t_x8 +2949 t_x9 +3993.4803922 t_x10 +1239 t_x11 +996.84041394 t_x13 +8037 t_x14 +5704 t_x17 +1582 t_x18
  +7955.7135076 t_x19 +9232 t_x20 +4600 t_x21 +2637 t_x22 +6771.8233932 t_x23 +425.53118192 t_x24 +3647 t_x25
  +2913.3760893 t_x26 +2587.7352941 t_x27 +3416.7352941 t_x28 +1053 t_x29 +2869 t_x30 +1867.9586057 t_x31
  +3948 t_x32 +6049 t_x33 +6880 t_x35 +3779 t_x36 +3641 t_x37 +5567 t_x38 +2197 t_x39 +2842 t_x40 +4846 t_x41
  +4616 t_x42 +8807 t_x43 +3261 t_x44 +3553 t_x45 +5239 t_x46 +8172 t_x48 +4380.7073802 t_x49 +2536 t_x50
  +5333.267293 t_x51 +3541 t_x52 +8080 t_x53 +3547.4434913 t_x54 +5036 t_x55 +1782 t_x56 +769.38126362 t_x57
  +4205 t_x58 +1374.3269336 t_x61 +5355 t_x62 +1919 t_x63 +1296.5245098 t_x64 +8541 t_x66 +8352 t_x67
  +3291 t_x68 +7328 t_x69 +4506 t_x70 +4429 t_x71 +758.29711329 t_x72 +2184.2401961 t_x73 +4236.1090686 t_x74
  +5406.1224129 t_x75 +4378 t_x76 +3647 t_x77 +3795 t_x78 +2912 t_x79 +40.55787037 t_x80 +5445 t_x81 +6112 t_x83
  +8841 t_x84 +1236 t_x85 +2909 t_x87 +7622 t_x88 +7393 t_x89 +8830 t_x90 +1950 t_x91 +4654 t_x92 +2255 t_x93
  +7104 t_x94 +5858.9893791 t_x95 +2054 t_x96 +6682 t_x97 +3234 t_x98 +2842 t_x99 +3974 t_x100 +3624 t_x101
  +5415 t_x102 +2246 t_x103 +8590 t_x104 +2633 t_x105 +4655 t_x106 +2923 t_x107 +6318 t_x108 +7440 t_x109
  +4579 t_x110 +1839.3216231 t_x112 +6268 t_x113 +7847.8483115 t_x114 +9838 t_x115 +4876 t_x116 +425.53118192 t_x117
  +4922 t_x118 +3590 t_x119 +7056 t_x121 +7850 t_x123 +6863 t_x124 +7131.2908497 t_x125 +2933 t_x126 +2665 t_x127
  +4063 t_x128 +6844.4421296 t_x129 +1966 t_x130 +4540 t_x131 +1370 t_x132 +9828 t_x133 +9376 t_x134 +4023.7207244 t_x135
  +1996 t_x136 +5320 t_x137 +5299.145561 t_x138 +1645 t_x139 +5743.9670479 t_x140 +4920 t_x141 +3705 t_x143
  +4970 t_x144 +1582 t_x145 +3889.5196078 t_x146 +8177 t_x148 +1 t_x151 >= +123188
 c11: +8742 t_x149 +4264 t_x1 +2349.7029047 t_x2 +5954.3061901 t_x3 +2876 t_x4 +9723 t_x5 +7310 t_x6 +1529 t_x7
  +1585 t_x8 +2949 t_x9 +7097 t_x10 +1239 t_x11 +6019.7713621 t_x12 +8025 t_x13 +7123 t_x15 +8067 t_x16
  +5704 t_x17 +1582 t_x18 +8713 t_x19 +9232 t_x20 +4600 t_x21 +2637 t_x22 +7131 t_x23 +4486.3993937 t_x24
  +3647 t_x25 +5761.3993937 t_x26 +3143.4143401 t_x27 +4322.1433305 t_x28 +1053 t_x29 +2869 t_x30 +5410 t_x31
  +3948 t_x32 +6049 t_x33 +4666.1862662 t_x35 +3779 t_x36 +3641 t_x37 +5353 t_x38 +2197 t_x39 +2842 t_x40
  +4846 t_x41 +4616 t_x42 +8807 t_x43 +3261 t_x44 +3553 t_x45 +5239 t_x46 +6665 t_x47 +8172 t_x48 +8425 t_x49
  +2536 t_x50 +8013 t_x51 +3541 t_x52 +8080 t_x53 +6767 t_x54 +5036 t_x55 +1782 t_x56 +3895 t_x57 +4205 t_x58
  +6995.3832487 t_x59 +9326 t_x60 +1936 t_x61 +5355 t_x62 +1919 t_x63 +7066.1811901 t_x64 +7341 t_x65
  +4655 t_x66 +8352 t_x67 +3291 t_x68 +7328 t_x69 +4506 t_x70 +4429 t_x71 +4593 t_x72 +2081.7976241 t_x73
  +3545.8932953 t_x74 +5202.9097575 t_x75 +4378 t_x76 +3647 t_x77 +3795 t_x78 +2912 t_x79 +5445 t_x81
  +6112 t_x83 +1236 t_x85 +2909 t_x87 +5757.7289904 t_x90 +1950 t_x91 +4654 t_x92 +2255 t_x93 +7744 t_x95
  +2054 t_x96 +1810.9409546 t_x97 +3234 t_x98 +1339.329068 t_x99 +3974 t_x100 +3624 t_x101 +5415 t_x102
  +2246 t_x103 +8590 t_x104 +2633 t_x105 +4655 t_x106 +2923 t_x107 +4579 t_x110 +3143.4143401 t_x113 +8570 t_x114
  +9838 t_x115 +4876 t_x116 +4486.3993937 t_x117 +4922 t_x118 +3590 t_x119 +7056 t_x121 +9136 t_x122 +4448 t_x125
  +2933 t_x126 +2665 t_x127 +4063 t_x128 +6324.7029047 t_x129 +1966 t_x130 +4540 t_x131 +1370 t_x132 +9828 t_x133
  +9376 t_x134 +6443 t_x135 +1996 t_x136 +5320 t_x137 +1645 t_x139 +433 t_x140 +4920 t_x141 +8107 t_x142
  +6103 t_x143 +4970 t_x144 +1582 t_x145 +6146 t_x146 +6295 t_x147 +8177 t_x148 +1 t_x151 >= +112419.0906
 c10: +8742 t_x149 +4264 t_x1 +1218.3024772 t_x2 +2876 t_x4 +1529 t_x7 +1585 t_x8 +2949 t_x9 +1239 t_x11
  +2623.8400161 t_x13 +8037 t_x14 +7123 t_x15 +3697.4308858 t_x16 +5704 t_x17 +1582 t_x18 +8713 t_x19
  +8172 t_x20 +4600 t_x21 +2637 t_x22 +3993.954677 t_x23 +9861 t_x24 +3647 t_x25 +8494 t_x26 +1978.1561741 t_x27
  +5880 t_x28 +1053 t_x29 +2869 t_x30 +5410 t_x31 +3948 t_x32 +6049 t_x33 +9317 t_x34 +2002.5472941 t_x35
  +3779 t_x36 +3641 t_x37 +5567 t_x38 +2197 t_x39 +2842 t_x40 +4846 t_x41 +4616 t_x42 +8807 t_x43 +3261 t_x44
  +3553 t_x45 +5239 t_x46 +6665 t_x47 +8172 t_x48 +2536 t_x50 +5780.0146168 t_x51 +3541 t_x52 +8080 t_x53
  +6701.5752929 t_x54 +5036 t_x55 +1782 t_x56 +3895 t_x57 +4205 t_x58 +7772 t_x59 +9326 t_x60 +4720.6651742 t_x61
  +5355 t_x62 +1919 t_x63 +3921.3900634 t_x64 +8541 t_x66 +8352 t_x67 +3291 t_x68 +4506 t_x70 +4429 t_x71
  +4593 t_x72 +9138 t_x73 +3472.3031042 t_x74 +630.30310424 t_x75 +4378 t_x76 +3647 t_x77 +2912 t_x78
  +2912 t_x79 +5445 t_x81 +6112 t_x83 +8841 t_x84 +1236 t_x85 +7010 t_x86 +2909 t_x87 +7622 t_x88 +7393 t_x89
  +3952.5472941 t_x90 +1950 t_x91 +4654 t_x92 +2255 t_x93 +7104 t_x94 +2054 t_x96 +6682 t_x97 +3234 t_x98
  +2842 t_x99 +3974 t_x100 +3624 t_x101 +5415 t_x102 +2246 t_x103 +8590 t_x104 +2633 t_x105 +4655 t_x106
  +2923 t_x107 +6318 t_x108 +4579 t_x110 +8342 t_x111 +4641.0618824 t_x112 +6268 t_x113 +2672.8901642 t_x114
  +9838 t_x115 +4876 t_x116 +9861 t_x117 +4922 t_x118 +3590 t_x119 +7152 t_x120 +7056 t_x121 +9136 t_x122
  +7850 t_x123 +2933 t_x126 +2665 t_x127 +4063 t_x128 +7502 t_x129 +1966 t_x130 +4540 t_x131 +1370 t_x132
  +9376 t_x134 +4223.2163061 t_x135 +1996 t_x136 +5320 t_x137 +3234 t_x138 +1645 t_x139 +7785.9167409 t_x140
  +4920 t_x141 +6103 t_x143 +4970 t_x144 +1582 t_x145 +4055.643386 t_x146 +6295 t_x147 +8177 t_x148 +9936 t_x150
  +1 t_x151 >= +127089.14155
 c9: +8742 t_x149 +4264 t_x1 +3875.8958001 t_x2 +4091.5157068 t_x3 +2876 t_x4 +9723 t_x5 +1529 t_x7 +1585 t_x8
  +2949 t_x9 +7097 t_x10 +1239 t_x11 +9402 t_x12 +141.85254951 t_x13 +8037 t_x14 +5704 t_x17 +1582 t_x18
  +8172 t_x20 +4600 t_x21 +2637 t_x22 +6201.8467448 t_x23 +4056 t_x24 +3647 t_x25 +4370 t_x26 +692.80030731 t_x27
  +1252 t_x28 +1053 t_x29 +2869 t_x30 +5410 t_x31 +3948 t_x32 +6049 t_x33 +9317 t_x34 +4584.1996927 t_x35
  +3779 t_x36 +3641 t_x37 +5567 t_x38 +2197 t_x39 +2842 t_x40 +4846 t_x41 +4616 t_x42 +8807 t_x43 +3261 t_x44
  +3553 t_x45 +5239 t_x46 +6665 t_x47 +8172 t_x48 +2536 t_x50 +7163.2213749 t_x51 +3541 t_x52 +8080 t_x53
  +3568.8679718 t_x54 +5036 t_x55 +1782 t_x56 +3895 t_x57 +4205 t_x58 +7772 t_x59 +2546.4977806 t_x61
  +920.44109948 t_x62 +1919 t_x63 +6295.6057364 t_x65 +3195 t_x66 +3291 t_x68 +4506 t_x70 +4429 t_x71
  +4593 t_x72 +2896.1020089 t_x73 +5877.0429661 t_x74 +984.49846346 t_x75 +4378 t_x76 +3647 t_x77 +3795 t_x78
  +2912 t_x79 +8830 t_x80 +2395.8979911 t_x81 +6112 t_x83 +1236 t_x85 +7010 t_x86 +2909 t_x87 +7622 t_x88
  +7393 t_x89 +4019.8003073 t_x90 +1950 t_x91 +2510.3471432 t_x92 +2255 t_x93 +4404.6020089 t_x95 +2054 t_x96
  +1366.8979911 t_x97 +3234 t_x98 +2842 t_x99 +3974 t_x100 +3624 t_x101 +5415 t_x102 +2246 t_x103 +8590 t_x104
  +2633 t_x105 +4655 t_x106 +2923 t_x107 +6318 t_x108 +7440 t_x109 +4579 t_x110 +8342 t_x111 +1582 t_x112
  +6268 t_x113 +9838 t_x115 +4876 t_x116 +4056 t_x117 +3333 t_x118 +3590 t_x119 +6684.7360005 t_x121 +9136 t_x122
  +7850 t_x123 +7984.5952083 t_x125 +2933 t_x126 +2665 t_x127 +4063 t_x128 +2973.398674 t_x129 +1966 t_x130
  +4540 t_x131 +1370 t_x132 +9828 t_x133 +9376 t_x134 +5442.4805372 t_x135 +1996 t_x136 +5320 t_x137 +1645 t_x139
  +5264.9477578 t_x140 +4920 t_x141 +8107 t_x142 +6103 t_x143 +4970 t_x144 +1582 t_x145 +6146 t_x146 +6295 t_x147
  +8177 t_x148 +1 t_x151 >= +115941
 c8: +8742 t_x149 +4264 t_x1 +5339 t_x2 +8260 t_x3 +2876 t_x4 +8445 t_x5 +7310 t_x6 +1529 t_x7 +1585 t_x8
  +2949 t_x9 +7097 t_x10 +1239 t_x11 +2364.3477082 t_x12 +2463 t_x13 +8037 t_x14 +7123 t_x15 +2933 t_x17
  +1582 t_x18 +8713 t_x19 +9232 t_x20 +4600 t_x21 +2637 t_x22 +6859.5538378 t_x23 +2400.0713317 t_x24
  +3647 t_x25 +2923 t_x26 +1683.2694603 t_x27 +5880 t_x28 +1053 t_x29 +2781.1171684 t_x30 +1920.896664 t_x31
  +3948 t_x32 +6049 t_x33 +9317 t_x34 +2633.4930838 t_x35 +3779 t_x36 +3641 t_x37 +5567 t_x38 +2197 t_x39
  +2842 t_x40 +4846 t_x41 +4616 t_x42 +8807 t_x43 +3261 t_x44 +3553 t_x45 +5239 t_x46 +8172 t_x48 +8425 t_x49
  +2536 t_x50 +6292.9194467 t_x51 +3541 t_x52 +4602.7549498 t_x54 +5036 t_x55 +1782 t_x56 +3895 t_x57
  +4205 t_x58 +5781.2161649 t_x60 +3828.0930296 t_x61 +5355 t_x62 +1919 t_x63 +6803.6804991 t_x64 +7341 t_x65
  +4655 t_x66 +3291 t_x68 +7328 t_x69 +4506 t_x70 +4429 t_x71 +2068.3189585 t_x72 +8484 t_x73 +4290.3138053 t_x74
  +5470.8814755 t_x75 +4378 t_x76 +3647 t_x77 +3795 t_x78 +2912 t_x79 +8830 t_x80 +5445 t_x81 +6112 t_x83
  +1236 t_x85 +2909 t_x87 +7622 t_x88 +7393 t_x89 +3307.7596962 t_x90 +1950 t_x91 +4654 t_x92 +2255 t_x93
  +2054 t_x96 +6682 t_x97 +3234 t_x98 +2842 t_x99 +3974 t_x100 +3624 t_x101 +5415 t_x102 +2246 t_x103
  +8590 t_x104 +2633 t_x105 +4655 t_x106 +2923 t_x107 +6318 t_x108 +4579 t_x110 +8342 t_x111 +2259.9591809 t_x112
  +6268 t_x113 +8570 t_x114 +9838 t_x115 +1677.8517765 t_x116 +2400.0713317 t_x117 +4922 t_x118 +3590 t_x119
  +7152 t_x120 +7056 t_x121 +2933 t_x126 +2665 t_x127 +4063 t_x128 +2838.1593436 t_x129 +1966 t_x130 +4540 t_x131
  +1370 t_x132 +9376 t_x134 +6443 t_x135 +1996 t_x136 +5320 t_x137 +6754 t_x138 +1645 t_x139 +8057.6528343 t_x140
  +4920 t_x141 +8107 t_x142 +4014.9286683 t_x143 +4970 t_x144 +1582 t_x145 +6146 t_x146 +6295 t_x147 +8177 t_x148
  +9936 t_x150 +1 t_x151 >= +111973.66667
 c7: +8742 t_x149 +4264 t_x1 +5339 t_x2 +5950 t_x3 +2876 t_x4 +9723 t_x5 +1529 t_x7 +1585 t_x8 +2949 t_x9
  +3402.7992571 t_x10 +1239 t_x11 +6449 t_x12 +3647 t_x13 +4517.0858346 t_x15 +5704 t_x17 +1582 t_x18
  +7115.7257058 t_x19 +3371 t_x21 +2637 t_x22 +7131 t_x23 +5896.5208271 t_x24 +3647 t_x25 +8494 t_x26
  +379.40517583 t_x27 +5880 t_x28 +1053 t_x29 +2869 t_x30 +5410 t_x31 +3948 t_x32 +6049 t_x33 +2814.2200099 t_x35
  +3779 t_x36 +3641 t_x37 +5567 t_x38 +2197 t_x39 +2842 t_x40 +4846 t_x41 +4616 t_x42 +3261 t_x44 +3553 t_x45
  +5239 t_x46 +6665 t_x47 +5519.3776127 t_x48 +5519.3776127 t_x49 +2536 t_x50 +2679.7992571 t_x51 +3541 t_x52
  +5991.3240713 t_x54 +5036 t_x55 +1782 t_x56 +3895 t_x57 +4205 t_x58 +7772 t_x59 +9326 t_x60 +5355 t_x62
  +1919 t_x63 +6851.4383853 t_x64 +8541 t_x66 +8352 t_x67 +3291 t_x68 +4506 t_x70 +4429 t_x71 +2671.1703318 t_x72
  +4071.8888806 t_x73 +5999.3406637 t_x74 +3781.9888063 t_x75 +3647 t_x77 +3795 t_x78 +2912 t_x79 +8830 t_x80
  +5445 t_x81 +6112 t_x83 +1236 t_x85 +2909 t_x87 +7622 t_x88 +6281.3502229 t_x89 +4764.2200099 t_x90
  +1950 t_x91 +4654 t_x92 +2255 t_x93 +2054 t_x96 +6682 t_x97 +3234 t_x98 +2706.9888063 t_x99 +3974 t_x100
  +3624 t_x101 +5415 t_x102 +2246 t_x103 +2633 t_x105 +4655 t_x106 +2923 t_x107 +6318 t_x108 +7440 t_x109
  +4579 t_x110 +5211.7323923 t_x111 +1367.1828628 t_x112 +987.77768697 t_x113 +8570 t_x114 +8392.0859336 t_x115
  +4876 t_x116 +5896.5208271 t_x117 +4922 t_x118 +3590 t_x119 +7152 t_x120 +7056 t_x121 +9136 t_x122 +7850 t_x123
  +6863 t_x124 +9356 t_x125 +2933 t_x126 +2665 t_x127 +4063 t_x128 +7502 t_x129 +1966 t_x130 +4540 t_x131
  +1370 t_x132 +9828 t_x133 +9376 t_x134 +4204.3776127 t_x135 +1996 t_x136 +5320 t_x137 +3688.0699604 t_x138
  +1645 t_x139 +433 t_x140 +4920 t_x141 +6103 t_x143 +4970 t_x144 +1582 t_x145 +6146 t_x146 +6295 t_x147
  +8177 t_x148 +9936 t_x150 +1 t_x151 >= +110802.52457
 c6: +4547.1370064 t_x149 +4264 t_x1 +4264 t_x2 +7749 t_x3 +2876 t_x4 +9723 t_x5 +1529 t_x7 +1585 t_x8
  +2949 t_x9 +5307.6683033 t_x10 +1239 t_x11 +4623.3631424 t_x12 +5095.7938067 t_x13 +8037 t_x14 +7123 t_x15
  +8067 t_x16 +5704 t_x17 +1582 t_x18 +6570.524825 t_x19 +9232 t_x20 +4035 t_x21 +2637 t_x22 +5112.4181569 t_x23
  +4376.4583031 t_x24 +3647 t_x25 +6202.6957438 t_x26 +5880 t_x28 +1053 t_x29 +2869 t_x30 +5410 t_x31
  +3948 t_x32 +6049 t_x33 +9317 t_x34 +6880 t_x35 +3779 t_x36 +3641 t_x37 +5567 t_x38 +2197 t_x39 +2842 t_x40
  +4846 t_x41 +4386.6285041 t_x42 +3261 t_x44 +3553 t_x45 +5239 t_x46 +6665 t_x47 +8172 t_x48 +8425 t_x49
  +2536 t_x50 +2922.0679176 t_x51 +922.71451306 t_x52 +8080 t_x53 +6767 t_x54 +5036 t_x55 +1782 t_x56
  +3895 t_x57 +4205 t_x58 +9326 t_x60 +5355 t_x62 +1919 t_x63 +5491.8578076 t_x64 +4655 t_x66 +3291 t_x68
  +4506 t_x70 +4429 t_x71 +3783.7812896 t_x72 +654.39121533 t_x75 +4378 t_x76 +3647 t_x77 +3795 t_x78
  +2912 t_x79 +8830 t_x80 +5445 t_x81 +6112 t_x83 +8841 t_x84 +1236 t_x85 +7010 t_x86 +2909 t_x87 +5966.6503463 t_x89
  +4789.3781866 t_x90 +1950 t_x91 +4654 t_x92 +2255 t_x93 +7104 t_x94 +7744 t_x95 +2054 t_x96 +3124.5817884 t_x97
  +3234 t_x98 +654.39121533 t_x99 +3974 t_x100 +3624 t_x101 +5415 t_x102 +2246 t_x103 +8590 t_x104 +2633 t_x105
  +4655 t_x106 +2923 t_x107 +6318 t_x108 +7440 t_x109 +4579 t_x110 +3650.9002494 t_x112 +6268 t_x113 +8570 t_x114
  +7119.5646547 t_x115 +4876 t_x116 +4376.4583031 t_x117 +3590 t_x118 +3590 t_x119 +7056 t_x121 +9136 t_x122
  +6863 t_x124 +2933 t_x126 +2665 t_x127 +4063 t_x128 +5805.6941235 t_x129 +1966 t_x130 +4540 t_x131 +1370 t_x132
  +9828 t_x133 +6443 t_x135 +1996 t_x136 +2230.8578076 t_x137 +35.415531264 t_x138 +1645 t_x139 +6184.8933866 t_x140
  +4920 t_x141 +8107 t_x142 +6103 t_x143 +4970 t_x144 +1582 t_x145 +1807.4118259 t_x146 +6295 t_x147 +9936 t_x150
  +1 t_x151 >= +124193.83991
 c5: +3373 t_x149 +4264 t_x1 +5339 t_x2 +2551.0705817 t_x3 +2876 t_x4 +9723 t_x5 +7310 t_x6 +1529 t_x7
  +1585 t_x8 +2949 t_x9 +7097 t_x10 +1239 t_x11 +5460.1237005 t_x12 +6988.5590257 t_x13 +8037 t_x14 +7123 t_x15
  +8067 t_x16 +5704 t_x17 +1582 t_x18 +4132.4582009 t_x19 +4035 t_x21 +2637 t_x22 +5161.2867944 t_x23
  +4438.6399605 t_x24 +3647 t_x25 +4130.3600395 t_x26 +9897 t_x27 +5880 t_x28 +1053 t_x29 +2869 t_x30
  +4453 t_x31 +3948 t_x32 +6049 t_x33 +1950 t_x35 +3779 t_x36 +3641 t_x37 +5567 t_x38 +2197 t_x39 +2842 t_x40
  +4846 t_x41 +4616 t_x42 +8807 t_x43 +3261 t_x44 +3553 t_x45 +5239 t_x46 +6665 t_x47 +2536 t_x50 +5175.6917691 t_x51
  +3541 t_x52 +8080 t_x53 +2857.9555159 t_x54 +5036 t_x55 +1782 t_x56 +3895 t_x57 +4205 t_x58 +2548.0705817 t_x60
  +1766.2736704 t_x61 +5355 t_x62 +1919 t_x63 +7341 t_x65 +8352 t_x67 +3291 t_x68 +7328 t_x69 +4506 t_x70
  +4429 t_x71 +4593 t_x72 +8484 t_x73 +6175.543002 t_x74 +2921.3990893 t_x75 +4378 t_x76 +3647 t_x77 +3795 t_x78
  +2912 t_x79 +2505.1281467 t_x80 +5445 t_x81 +6112 t_x83 +8841 t_x84 +1236 t_x85 +7010 t_x86 +2909 t_x87
  +6110.5626987 t_x89 +1950 t_x91 +4654 t_x92 +2255 t_x93 +7104 t_x94 +2054 t_x96 +2501.4582009 t_x97
  +3234 t_x98 +2842 t_x99 +3974 t_x100 +3624 t_x101 +5415 t_x102 +1582 t_x103 +2633 t_x105 +4655 t_x106
  +2923 t_x107 +6318 t_x108 +4579 t_x110 +8342 t_x111 +1365.1296074 t_x112 +6268 t_x113 +7799 t_x115 +4876 t_x116
  +4438.6399605 t_x117 +4922 t_x118 +3590 t_x119 +7152 t_x120 +7056 t_x121 +4655 t_x123 +6863 t_x124 +9356 t_x125
  +2933 t_x126 +2665 t_x127 +4063 t_x128 +1966 t_x130 +4540 t_x131 +1370 t_x132 +9828 t_x133 +2459.7239454 t_x135
  +1996 t_x136 +5320 t_x137 +1645 t_x139 +234.37039265 t_x140 +4920 t_x141 +8107 t_x142 +2850.6425595 t_x143
  +4970 t_x144 +1582 t_x145 +6146 t_x146 +6295 t_x147 +9936 t_x150 +1 t_x151 >= +122529.5819
 c4: +8742 t_x149 +4264 t_x1 +5339 t_x2 +4020 t_x3 +2876 t_x4 +7310 t_x6 +1529 t_x7 +1585 t_x8 +2949 t_x9
  +7097 t_x10 +1239 t_x11 +5213 t_x12 +5205.5725555 t_x13 +3447.1997813 t_x15 +5187.6249609 t_x16 +5704 t_x17
  +1506.6047419 t_x18 +8713 t_x19 +9232 t_x20 +4600 t_x21 +2637 t_x22 +3022.4184269 t_x23 +1444.7264377 t_x24
  +3647 t_x25 +8494 t_x26 +4579 t_x28 +1053 t_x29 +2869 t_x30 +5410 t_x31 +3948 t_x32 +6049 t_x33 +9317 t_x34
  +179.5 t_x35 +3779 t_x36 +3641 t_x37 +5567 t_x38 +2197 t_x39 +2842 t_x40 +4846 t_x41 +4616 t_x42 +8807 t_x43
  +3261 t_x44 +3553 t_x45 +5239 t_x46 +6665 t_x47 +8172 t_x48 +8425 t_x49 +2536 t_x50 +3541 t_x52 +4966.4377418 t_x54
  +5036 t_x55 +1782 t_x56 +3895 t_x57 +4205 t_x58 +7772 t_x59 +6887.3290528 t_x60 +1337.1303919 t_x61
  +5355 t_x62 +1919 t_x63 +6185.1233268 t_x64 +7341 t_x65 +3291 t_x68 +7328 t_x69 +4506 t_x70 +4429 t_x71
  +2038.6351681 t_x72 +6121.179313 t_x73 +6197.801258 t_x74 +1698.801258 t_x75 +2279.4274445 t_x76 +3647 t_x77
  +3795 t_x78 +2912 t_x79 +8830 t_x80 +5445 t_x81 +4478.7723368 t_x83 +8841 t_x84 +1236 t_x85 +7010 t_x86
  +2909 t_x87 +7622 t_x88 +1997.1997813 t_x89 +179.5 t_x91 +4654 t_x92 +2255 t_x93 +7104 t_x94 +7744 t_x95
  +2054 t_x96 +6682 t_x97 +3234 t_x98 +2842 t_x99 +3974 t_x100 +3624 t_x101 +5415 t_x102 +2246 t_x103
  +2633 t_x105 +4655 t_x106 +2923 t_x107 +6318 t_x108 +7440 t_x109 +4579 t_x110 +5050 t_x112 +5050 t_x113
  +4876 t_x116 +1444.7264377 t_x117 +4922 t_x118 +3590 t_x119 +7152 t_x120 +805 t_x121 +9136 t_x122 +4655 t_x123
  +6863 t_x124 +6006.1685651 t_x125 +2933 t_x126 +2665 t_x127 +4063 t_x128 +7502 t_x129 +1966 t_x130 +4540 t_x131
  +1370 t_x132 +9376 t_x134 +6443 t_x135 +1996 t_x136 +5320 t_x137 +190.29012568 t_x138 +1645 t_x139 +1966 t_x140
  +4276.6272259 t_x141 +6103 t_x143 +4970 t_x144 +1582 t_x145 +6146 t_x146 +6295 t_x147 +8177 t_x148 +1 t_x151
  >= +121387.97778
 c3: +3384.6358405 t_x149 +4264 t_x1 +5339 t_x2 +5997.5298448 t_x3 +2876 t_x4 +7310 t_x6 +1529 t_x7 +1585 t_x8
  +2949 t_x9 +4194.6948608 t_x10 +1239 t_x11 +9402 t_x12 +8025 t_x13 +8037 t_x14 +7123 t_x15 +4956.3455567 t_x16
  +5704 t_x17 +1582 t_x18 +4450.6085385 t_x21 +2637 t_x22 +2834.0627677 t_x23 +6800.7326017 t_x24 +3647 t_x25
  +5067.3705835 t_x26 +9897 t_x27 +5880 t_x28 +1053 t_x29 +2869 t_x30 +5410 t_x31 +3948 t_x32 +6049 t_x33
  +6880 t_x35 +3779 t_x36 +3641 t_x37 +4989.1615364 t_x38 +2197 t_x39 +2842 t_x40 +4846 t_x41 +4616 t_x42
  +3261 t_x44 +3553 t_x45 +5239 t_x46 +6665 t_x47 +6513.6694995 t_x48 +6513.6694995 t_x49 +2536 t_x50
  +5762 t_x51 +3541 t_x52 +8080 t_x53 +6767 t_x54 +5036 t_x55 +1782 t_x56 +3895 t_x57 +4205 t_x58 +7772 t_x59
  +4757 t_x61 +5355 t_x62 +1919 t_x63 +7988.4333512 t_x64 +7341 t_x65 +8541 t_x66 +8352 t_x67 +3291 t_x68
  +7328 t_x69 +4506 t_x70 +4429 t_x71 +4593 t_x72 +6465.6610011 t_x74 +5806.8664347 t_x75 +4378 t_x76
  +3647 t_x77 +1395.1358405 t_x78 +2912 t_x79 +5445 t_x81 +6112 t_x83 +1236 t_x85 +7010 t_x86 +2909 t_x87
  +7622 t_x88 +6594.385439 t_x89 +8830 t_x90 +1950 t_x91 +4654 t_x92 +2255 t_x93 +7104 t_x94 +7744 t_x95
  +2054 t_x96 +6682 t_x97 +3234 t_x98 +2842 t_x99 +3974 t_x100 +3624 t_x101 +5415 t_x102 +1997.6085385 t_x103
  +8590 t_x104 +2373.137781 t_x105 +4655 t_x106 +2923 t_x107 +6318 t_x108 +7440 t_x109 +4579 t_x110 +8342 t_x111
  +5050 t_x112 +6268 t_x113 +8570 t_x114 +4876 t_x116 +6800.7326017 t_x117 +4922 t_x118 +3590 t_x119 +7152 t_x120
  +7056 t_x121 +7850 t_x123 +6863 t_x124 +2933 t_x126 +2665 t_x127 +4063 t_x128 +7194.4958512 t_x129 +1966 t_x130
  +4540 t_x131 +1370 t_x132 +699.33050054 t_x135 +1996 t_x136 +5320 t_x137 +2686.2422377 t_x138 +1645 t_x139
  +2194.0980996 t_x140 +4920 t_x141 +8107 t_x142 +6103 t_x143 +4970 t_x144 +1582 t_x145 +6007.6066649 t_x146
  +6295 t_x147 +4739.5 t_x148 +1 t_x151 >= +117845.82287
 c2: +5339 t_x149 +3857.5340376 t_x1 +125.76760563 t_x2 +7165.7769953 t_x3 +2876 t_x4 +9723 t_x5 +7310 t_x6
  +1529 t_x7 +1585 t_x8 +2949 t_x9 +7097 t_x10 +1239 t_x11 +6449 t_x12 +4596.07277 t_x13 +8037 t_x14 +7123 t_x15
  +8067 t_x16 +5704 t_x17 +1582 t_x18 +8713 t_x19 +9232 t_x20 +3371 t_x21 +2637 t_x22 +7131 t_x23 +418.3028169 t_x24
  +3647 t_x25 +5688.4859155 t_x26 +7832.5997653 t_x27 +4409.1255869 t_x28 +1053 t_x29 +2869 t_x30 +5410 t_x31
  +3948 t_x32 +6049 t_x33 +9317 t_x34 +6880 t_x35 +3779 t_x36 +3641 t_x37 +5567 t_x38 +2197 t_x39 +2842 t_x40
  +4846 t_x41 +4616 t_x42 +8807 t_x43 +3261 t_x44 +3553 t_x45 +5239 t_x46 +6665 t_x47 +3257.4906103 t_x48
  +7219.556338 t_x49 +2536 t_x50 +8013 t_x51 +3541 t_x52 +8080 t_x53 +5593.0586854 t_x54 +5036 t_x55 +1782 t_x56
  +3895 t_x57 +4205 t_x58 +7772 t_x59 +9326 t_x60 +4757 t_x61 +5355 t_x62 +1919 t_x63 +7510.5774648 t_x64
  +7341 t_x65 +8541 t_x66 +8352 t_x67 +3291 t_x68 +7328 t_x69 +4506 t_x70 +4429 t_x71 +4593 t_x72 +9138 t_x73
  +3731.7664319 t_x74 +5124.2922535 t_x75 +4378 t_x76 +3647 t_x77 +3795 t_x78 +2912 t_x79 +8830 t_x80
  +5445 t_x81 +6112 t_x83 +8841 t_x84 +1236 t_x85 +7010 t_x86 +2909 t_x87 +7622 t_x88 +7393 t_x89 +8317.6971831 t_x90
  +1950 t_x91 +4654 t_x92 +2255 t_x93 +7104 t_x94 +7534.7887324 t_x95 +2054 t_x96 +6682 t_x97 +3234 t_x98
  +2842 t_x99 +3974 t_x100 +3624 t_x101 +5415 t_x102 +2246 t_x103 +8590 t_x104 +2633 t_x105 +4655 t_x106
  +2923 t_x107 +6318 t_x108 +7440 t_x109 +4579 t_x110 +8342 t_x111 +3813.4002347 t_x112 +6268 t_x113 +8570 t_x114
  +9838 t_x115 +4876 t_x116 +418.3028169 t_x117 +4922 t_x118 +3590 t_x119 +7152 t_x120 +7056 t_x121 +9136 t_x122
  +7850 t_x123 +6863 t_x124 +9356 t_x125 +2933 t_x126 +2665 t_x127 +4063 t_x128 +7502 t_x129 +1966 t_x130
  +4540 t_x131 +1370 t_x132 +9828 t_x133 +9376 t_x134 +3856.6326291 t_x135 +1996 t_x136 +5320 t_x137 +3107.4788732 t_x138
  +1645 t_x139 +2890.0046948 t_x140 +4920 t_x141 +8107 t_x142 +6103 t_x143 +4970 t_x144 +1582 t_x145 +6146 t_x146
  +6295 t_x147 +8177 t_x148 +9936 t_x150 +1 t_x151 >= +157344.61033
 c1: +1 t_x149 +1 t_x1 +1 t_x2 +1 t_x3 +1 t_x4 +1 t_x5 +1 t_x6 +1 t_x7 +1 t_x8 +1 t_x9 +1 t_x10 +1 t_x11
  +1 t_x12 +1 t_x13 +1 t_x14 +1 t_x15 +1 t_x16 +1 t_x17 +1 t_x18 +1 t_x19 +1 t_x20 +1 t_x21 +1 t_x22 +1 t_x23
  +1 t_x24 +1 t_x25 +1 t_x26 +1 t_x27 +1 t_x28 +1 t_x29 +1 t_x30 +1 t_x31 +1 t_x32 +1 t_x33 +1 t_x34 +1 t_x35
  +1 t_x36 +1 t_x37 +1 t_x38 +1 t_x39 +1 t_x40 +1 t_x41 +1 t_x42 +1 t_x43 +1 t_x44 +1 t_x45 +1 t_x46 +1 t_x47
  +1 t_x48 +1 t_x49 +1 t_x50 +1 t_x51 +1 t_x52 +1 t_x53 +1 t_x54 +1 t_x55 +1 t_x56 +1 t_x57 +1 t_x58 +1 t_x59
  +1 t_x60 +1 t_x61 +1 t_x62 +1 t_x63 +1 t_x64 +1 t_x65 +1 t_x66 +1 t_x67 +1 t_x68 +1 t_x69 +1 t_x70 +1 t_x71
  +1 t_x72 +1 t_x73 +1 t_x74 +1 t_x75 +1 t_x76 +1 t_x77 +1 t_x78 +1 t_x79 +1 t_x80 +1 t_x81 +1 t_x82 +1 t_x83
  +1 t_x84 +1 t_x85 +1 t_x86 +1 t_x87 +1 t_x88 +1 t_x89 +1 t_x90 +1 t_x91 +1 t_x92 +1 t_x93 +1 t_x94 +1 t_x95
  +1 t_x96 +1 t_x97 +1 t_x98 +1 t_x99 +1 t_x100 +1 t_x101 +1 t_x102 +1 t_x103 +1 t_x104 +1 t_x105 +1 t_x106
  +1 t_x107 +1 t_x108 +1 t_x109 +1 t_x110 +1 t_x111 +1 t_x112 +1 t_x113 +1 t_x114 +1 t_x115 +1 t_x116
  +1 t_x117 +1 t_x118 +1 t_x119 +1 t_x120 +1 t_x121 +1 t_x122 +1 t_x123 +1 t_x124 +1 t_x125 +1 t_x126
  +1 t_x127 +1 t_x128 +1 t_x129 +1 t_x130 +1 t_x131 +1 t_x132 +1 t_x133 +1 t_x134 +1 t_x135 +1 t_x136
  +1 t_x137 +1 t_x138 +1 t_x139 +1 t_x140 +1 t_x141 +1 t_x142 +1 t_x143 +1 t_x144 +1 t_x145 +1 t_x146
  +1 t_x147 +1 t_x148 +1 t_x150 <= +15
Bounds
 0 <= t_x149 <= 1
 0 <= t_x1 <= 1
 0 <= t_x2 <= 1
 0 <= t_x3 <= 1
 0 <= t_x4 <= 1
 0 <= t_x5 <= 1
 0 <= t_x6 <= 1
 0 <= t_x7 <= 1
 0 <= t_x8 <= 1
 0 <= t_x9 <= 1
 0 <= t_x10 <= 1
 0 <= t_x11 <= 1
 0 <= t_x12 <= 1
 0 <= t_x13 <= 1
 0 <= t_x14 <= 1
 0 <= t_x15 <= 1
 0 <= t_x16 <= 1
 0 <= t_x17 <= 1
 0 <= t_x18 <= 1
 0 <= t_x19 <= 1
 0 <= t_x20 <= 1
 0 <= t_x21 <= 1
 0 <= t_x22 <= 1
 0 <= t_x23 <= 1
 0 <= t_x24 <= 1
 0 <= t_x25 <= 1
 0 <= t_x26 <= 1
 0 <= t_x27 <= 1
 0 <= t_x28 <= 1
 0 <= t_x29 <= 1
 0 <= t_x30 <= 1
 0 <= t_x31 <= 1
 0 <= t_x32 <= 1
 0 <= t_x33 <= 1
 0 <= t_x34 <= 1
 0 <= t_x35 <= 1
 0 <= t_x36 <= 1
 0 <= t_x37 <= 1
 0 <= t_x38 <= 1
 0 <= t_x39 <= 1
 0 <= t_x40 <= 1
 0 <= t_x41 <= 1
 0 <= t_x42 <= 1
 0 <= t_x43 <= 1
 0 <= t_x44 <= 1
 0 <= t_x45 <= 1
 0 <= t_x46 <= 1
 0 <= t_x47 <= 1
 0 <= t_x48 <= 1
 0 <= t_x49 <= 1
 0 <= t_x50 <= 1
 0 <= t_x51 <= 1
 0 <= t_x52 <= 1
 0 <= t_x53 <= 1
 0 <= t_x54 <= 1
 0 <= t_x55 <= 1
 0 <= t_x56 <= 1
 0 <= t_x57 <= 1
 0 <= t_x58 <= 1
 0 <= t_x59 <= 1
 0 <= t_x60 <= 1
 0 <= t_x61 <= 1
 0 <= t_x62 <= 1
 0 <= t_x63 <= 1
 0 <= t_x64 <= 1
 0 <= t_x65 <= 1
 0 <= t_x66 <= 1
 0 <= t_x67 <= 1
 0 <= t_x68 <= 1
 0 <= t_x69 <= 1
 0 <= t_x70 <= 1
 0 <= t_x71 <= 1
 0 <= t_x72 <= 1
 0 <= t_x73 <= 1
 0 <= t_x74 <= 1
 0 <= t_x75 <= 1
 0 <= t_x76 <= 1
 0 <= t_x77 <= 1
 0 <= t_x78 <= 1
 0 <= t_x79 <= 1
 0 <= t_x80 <= 1
 0 <= t_x81 <= 1
 0 <= t_x82 <= 1
 0 <= t_x83 <= 1
 0 <= t_x84 <= 1
 0 <= t_x85 <= 1
 0 <= t_x86 <= 1
 0 <= t_x87 <= 1
 0 <= t_x88 <= 1
 0 <= t_x89 <= 1
 0 <= t_x90 <= 1
 0 <= t_x91 <= 1
 0 <= t_x92 <= 1
 0 <= t_x93 <= 1
 0 <= t_x94 <= 1
 0 <= t_x95 <= 1
 0 <= t_x96 <= 1
 0 <= t_x97 <= 1
 0 <= t_x98 <= 1
 0 <= t_x99 <= 1
 0 <= t_x100 <= 1
 0 <= t_x101 <= 1
 0 <= t_x102 <= 1
 0 <= t_x103 <= 1
 0 <= t_x104 <= 1
 0 <= t_x105 <= 1
 0 <= t_x106 <= 1
 0 <= t_x107 <= 1
 0 <= t_x108 <= 1
 0 <= t_x109 <= 1
 0 <= t_x110 <= 1
 0 <= t_x111 <= 1
 0 <= t_x112 <= 1
 0 <= t_x113 <= 1
 0 <= t_x114 <= 1
 0 <= t_x115 <= 1
 0 <= t_x116 <= 1
 0 <= t_x117 <= 1
 0 <= t_x118 <= 1
 0 <= t_x119 <= 1
 0 <= t_x120 <= 1
 0 <= t_x121 <= 1
 0 <= t_x122 <= 1
 0 <= t_x123 <= 1
 0 <= t_x124 <= 1
 0 <= t_x125 <= 1
 0 <= t_x126 <= 1
 0 <= t_x127 <= 1
 0 <= t_x128 <= 1
 0 <= t_x129 <= 1
 0 <= t_x130 <= 1
 0 <= t_x131 <= 1
 0 <= t_x132 <= 1
 0 <= t_x133 <= 1
 0 <= t_x134 <= 1
 0 <= t_x135 <= 1
 0 <= t_x136 <= 1
 0 <= t_x137 <= 1
 0 <= t_x138 <= 1
 0 <= t_x139 <= 1
 0 <= t_x140 <= 1
 0 <= t_x141 <= 1
 0 <= t_x142 <= 1
 0 <= t_x143 <= 1
 0 <= t_x144 <= 1
 0 <= t_x145 <= 1
 0 <= t_x146 <= 1
 0 <= t_x147 <= 1
 0 <= t_x148 <= 1
 0 <= t_x150 <= 1
 0 <= t_x151 <= 1000000000000
Binaries
 t_x149 t_x1 t_x2 t_x3 t_x4 t_x5 t_x6 t_x7 t_x8 t_x9 t_x10 t_x11 t_x12 t_x13 t_x14 t_x15 t_x16 t_x17 t_x18
 t_x19 t_x20 t_x21 t_x22 t_x23 t_x24 t_x25 t_x26 t_x27 t_x28 t_x29 t_x30 t_x31 t_x32 t_x33 t_x34 t_x35
 t_x36 t_x37 t_x38 t_x39 t_x40 t_x41 t_x42 t_x43 t_x44 t_x45 t_x46 t_x47 t_x48 t_x49 t_x50 t_x51 t_x52
 t_x53 t_x54 t_x55 t_x56 t_x57 t_x58 t_x59 t_x60 t_x61 t_x62 t_x63 t_x64 t_x65 t_x66 t_x67 t_x68 t_x69
 t_x70 t_x71 t_x72 t_x73 t_x74 t_x75 t_x76 t_x77 t_x78 t_x79 t_x80 t_x81 t_x82 t_x83 t_x84 t_x85 t_x86
 t_x87 t_x88 t_x89 t_x90 t_x91 t_x92 t_x93 t_x94 t_x95 t_x96 t_x97 t_x98 t_x99 t_x100 t_x101 t_x102 t_x103
 t_x104 t_x105 t_x106 t_x107 t_x108 t_x109 t_x110 t_x111 t_x112 t_x113 t_x114 t_x115 t_x116 t_x117 t_x118
 t_x119 t_x120 t_x121 t_x122 t_x123 t_x124 t_x125 t_x126 t_x127 t_x128 t_x129 t_x130 t_x131 t_x132 t_x133
 t_x134 t_x135 t_x136 t_x137 t_x138 t_x139 t_x140 t_x141 t_x142 t_x143 t_x144 t_x145 t_x146 t_x147 t_x148
 t_x150
End
